0 3111
3 3108
17 3088
30 3043
42 3000
60 2975
64 2972
75 2941
79 2939
82 2938
86 2924
91 2923
94 2921
104 2900
106 2873
109 2858
117 2841
151 2822
155 2812
249 2796
261 2793
324 2773
352 2764
805 2752
11909 2749
11938 2745
11951 2742
14020 2740
14305 2735
16458 2729
55393 2724
